NAME: rand_1/map7_480
TYPE: TSP
COMMENT: autogenerated using a wonderful map creator
DIMENSION: 600
EDGE_WEIGHT_TYPE: EUC_2D
NODE_COORD_SECTION
1 21.0 5.0
2 39.0 97.0
3 24.0 98.0
4 38.0 96.0
5 7.0 1.0
6 28.0 96.0
7 7.0 96.0
8 15.0 96.0
9 31.0 1.0
10 22.0 96.0
11 36.0 95.0
12 6.0 3.0
13 15.0 94.0
14 20.0 98.0
15 12.0 5.0
16 5.0 5.0
17 26.0 98.0
18 41.0 3.0
19 2.0 1.0
20 43.0 96.0
21 11.0 1.0
22 24.0 1.0
23 24.0 95.0
24 14.0 95.0
25 24.0 4.0
26 9.0 97.0
27 34.0 2.0
28 40.0 99.0
29 11.0 98.0
30 19.0 95.0
31 40.0 3.0
32 6.0 1.0
33 21.0 96.0
34 30.0 1.0
35 23.0 5.0
36 34.0 95.0
37 20.0 3.0
38 18.0 2.0
39 25.0 98.0
40 32.0 2.0
41 26.0 94.0
42 30.0 6.0
43 38.0 6.0
44 14.0 3.0
45 43.0 1.0
46 14.0 2.0
47 11.0 99.0
48 14.0 97.0
49 17.0 3.0
50 42.0 94.0
51 9.0 95.0
52 16.0 2.0
53 22.0 97.0
54 2.0 3.0
55 13.0 99.0
56 39.0 2.0
57 8.0 97.0
58 34.0 3.0
59 33.0 4.0
60 33.0 98.0
61 30.0 2.0
62 39.0 99.0
63 10.0 96.0
64 27.0 3.0
65 3.0 99.0
66 5.0 3.0
67 35.0 95.0
68 37.0 4.0
69 18.0 97.0
70 14.0 5.0
71 10.0 5.0
72 35.0 2.0
73 30.0 97.0
74 2.0 6.0
75 5.0 94.0
76 4.0 98.0
77 28.0 99.0
78 28.0 97.0
79 19.0 97.0
80 39.0 4.0
81 6.0 5.0
82 33.0 3.0
83 21.0 2.0
84 1.0 2.0
85 1.0 3.0
86 44.0 99.0
87 20.0 99.0
88 12.0 96.0
89 41.0 4.0
90 33.0 5.0
91 7.0 5.0
92 12.0 1.0
93 42.0 5.0
94 36.0 94.0
95 9.0 99.0
96 20.0 4.0
97 20.0 96.0
98 20.0 97.0
99 36.0 4.0
100 27.0 1.0
101 44.0 3.0
102 6.0 95.0
103 42.0 6.0
104 8.0 96.0
105 18.0 98.0
106 29.0 5.0
107 3.0 2.0
108 24.0 5.0
109 30.0 98.0
110 5.0 97.0
111 16.0 5.0
112 43.0 2.0
113 9.0 2.0
114 27.0 2.0
115 42.0 98.0
116 14.0 94.0
117 41.0 1.0
118 24.0 99.0
119 26.0 5.0
120 7.0 99.0
121 12.0 2.0
122 3.0 6.0
123 15.0 2.0
124 21.0 99.0
125 24.0 2.0
126 15.0 97.0
127 17.0 99.0
128 12.0 6.0
129 40.0 4.0
130 34.0 98.0
131 39.0 94.0
132 5.0 2.0
133 34.0 99.0
134 17.0 5.0
135 35.0 97.0
136 28.0 3.0
137 38.0 2.0
138 4.0 99.0
139 25.0 5.0
140 38.0 99.0
141 25.0 2.0
142 44.0 96.0
143 44.0 97.0
144 14.0 98.0
145 31.0 3.0
146 16.0 1.0
147 13.0 5.0
148 44.0 5.0
149 17.0 1.0
150 28.0 98.0
151 20.0 1.0
152 8.0 5.0
153 9.0 94.0
154 36.0 98.0
155 26.0 4.0
156 16.0 97.0
157 10.0 2.0
158 18.0 3.0
159 14.0 96.0
160 18.0 96.0
161 3.0 97.0
162 32.0 96.0
163 36.0 3.0
164 42.0 95.0
165 19.0 98.0
166 2.0 98.0
167 44.0 98.0
168 15.0 95.0
169 22.0 98.0
170 11.0 94.0
171 40.0 5.0
172 19.0 96.0
173 28.0 2.0
174 23.0 6.0
175 5.0 99.0
176 22.0 95.0
177 28.0 5.0
178 18.0 4.0
179 39.0 3.0
180 32.0 6.0
181 38.0 94.0
182 14.0 4.0
183 42.0 2.0
184 18.0 5.0
185 27.0 98.0
186 2.0 95.0
187 1.0 4.0
188 25.0 4.0
189 41.0 95.0
190 31.0 5.0
191 43.0 97.0
192 33.0 95.0
193 24.0 6.0
194 11.0 6.0
195 1.0 98.0
196 35.0 94.0
197 37.0 2.0
198 23.0 95.0
199 12.0 95.0
200 28.0 4.0
201 12.0 3.0
202 35.0 5.0
203 27.0 97.0
204 31.0 98.0
205 35.0 98.0
206 2.0 99.0
207 36.0 99.0
208 20.0 6.0
209 43.0 98.0
210 30.0 96.0
211 10.0 97.0
212 22.0 2.0
213 41.0 98.0
214 40.0 1.0
215 33.0 6.0
216 21.0 6.0
217 30.0 95.0
218 6.0 4.0
219 1.0 96.0
220 38.0 97.0
221 23.0 3.0
222 38.0 98.0
223 27.0 94.0
224 10.0 98.0
225 22.0 1.0
226 42.0 97.0
227 26.0 95.0
228 24.0 96.0
229 33.0 94.0
230 38.0 95.0
231 17.0 4.0
232 34.0 97.0
233 10.0 3.0
234 3.0 1.0
235 14.0 99.0
236 32.0 3.0
237 34.0 4.0
238 44.0 6.0
239 7.0 4.0
240 5.0 1.0
241 1.0 86.0
242 28.0 58.0
243 28.0 67.0
244 19.0 9.0
245 19.0 18.0
246 40.0 50.0
247 29.0 50.0
248 40.0 59.0
249 25.0 43.0
250 22.0 19.0
251 22.0 28.0
252 4.0 87.0
253 43.0 78.0
254 1.0 72.0
255 13.0 74.0
256 43.0 87.0
257 13.0 83.0
258 28.0 80.0
259 40.0 45.0
260 40.0 54.0
261 21.0 50.0
262 40.0 63.0
263 10.0 22.0
264 10.0 31.0
265 20.0 72.0
266 31.0 72.0
267 34.0 16.0
268 31.0 81.0
269 10.0 58.0
270 34.0 25.0
271 22.0 32.0
272 13.0 51.0
273 14.0 28.0
274 43.0 64.0
275 13.0 60.0
276 43.0 73.0
277 16.0 74.0
278 17.0 39.0
279 28.0 39.0
280 7.0 16.0
281 16.0 83.0
282 28.0 66.0
283 40.0 49.0
284 25.0 15.0
285 10.0 35.0
286 31.0 67.0
287 25.0 33.0
288 25.0 42.0
289 31.0 76.0
290 23.0 72.0
291 12.0 72.0
292 37.0 16.0
293 4.0 68.0
294 22.0 27.0
295 13.0 46.0
296 1.0 53.0
297 43.0 77.0
298 16.0 60.0
299 13.0 73.0
300 16.0 69.0
301 7.0 11.0
302 40.0 8.0
303 1.0 89.0
304 42.0 72.0
305 10.0 12.0
306 19.0 79.0
307 25.0 10.0
308 25.0 19.0
309 31.0 53.0
310 10.0 30.0
311 4.0 63.0
312 31.0 89.0
313 1.0 48.0
314 35.0 50.0
315 16.0 46.0
316 4.0 90.0
317 13.0 68.0
318 16.0 64.0
319 28.0 29.0
320 1.0 84.0
321 40.0 30.0
322 6.0 28.0
323 7.0 91.0
324 19.0 74.0
325 10.0 16.0
326 8.0 83.0
327 19.0 92.0
328 43.0 22.0
329 13.0 27.0
330 4.0 58.0
331 1.0 34.0
332 4.0 67.0
333 4.0 76.0
334 34.0 77.0
335 34.0 86.0
336 28.0 15.0
337 1.0 61.0
338 13.0 63.0
339 37.0 82.0
340 16.0 59.0
341 15.0 72.0
342 26.0 72.0
343 38.0 83.0
344 40.0 25.0
345 19.0 69.0
346 31.0 34.0
347 19.0 78.0
348 25.0 9.0
349 31.0 52.0
350 32.0 17.0
351 43.0 17.0
352 20.0 61.0
353 1.0 29.0
354 1.0 38.0
355 43.0 53.0
356 16.0 54.0
357 34.0 90.0
358 28.0 28.0
359 17.0 28.0
360 7.0 63.0
361 7.0 72.0
362 18.0 72.0
363 27.0 50.0
364 7.0 81.0
365 31.0 29.0
366 31.0 38.0
367 31.0 47.0
368 13.0 8.0
369 13.0 17.0
370 4.0 48.0
371 23.0 61.0
372 1.0 24.0
373 10.0 91.0
374 34.0 58.0
375 4.0 57.0
376 25.0 89.0
377 22.0 83.0
378 28.0 14.0
379 16.0 49.0
380 9.0 28.0
381 5.0 39.0
382 7.0 58.0
383 19.0 32.0
384 19.0 41.0
385 7.0 85.0
386 40.0 91.0
387 4.0 34.0
388 41.0 83.0
389 1.0 28.0
390 34.0 62.0
391 16.0 26.0
392 1.0 37.0
393 37.0 58.0
394 22.0 69.0
395 1.0 46.0
396 37.0 67.0
397 22.0 78.0
398 34.0 89.0
399 22.0 87.0
400 37.0 85.0
401 38.0 50.0
402 19.0 45.0
403 31.0 10.0
404 40.0 86.0
405 20.0 28.0
406 4.0 11.0
407 31.0 37.0
408 4.0 20.0
409 10.0 72.0
410 43.0 20.0
411 1.0 14.0
412 4.0 47.0
413 16.0 12.0
414 33.0 83.0
415 25.0 79.0
416 10.0 90.0
417 22.0 55.0
418 25.0 88.0
419 22.0 82.0
420 37.0 80.0
421 22.0 91.0
422 7.0 39.0
423 15.0 61.0
424 7.0 66.0
425 19.0 31.0
426 40.0 81.0
427 31.0 23.0
428 40.0 90.0
429 31.0 32.0
430 12.0 28.0
431 25.0 56.0
432 13.0 11.0
433 25.0 65.0
434 10.0 85.0
435 22.0 50.0
436 25.0 92.0
437 37.0 57.0
438 19.0 17.0
439 8.0 17.0
440 28.0 84.0
441 7.0 61.0
442 42.0 28.0
443 18.0 61.0
444 27.0 39.0
445 31.0 18.0
446 40.0 85.0
447 4.0 10.0
448 10.0 53.0
449 10.0 62.0
450 34.0 29.0
451 34.0 38.0
452 22.0 45.0
453 25.0 78.0
454 22.0 54.0
455 37.0 52.0
456 38.0 17.0
457 22.0 72.0
458 28.0 70.0
459 19.0 12.0
460 19.0 30.0
461 31.0 13.0
462 40.0 80.0
463 40.0 89.0
464 33.0 50.0
465 10.0 48.0
466 10.0 57.0
467 25.0 64.0
468 22.0 40.0
469 34.0 42.0
470 37.0 38.0
471 34.0 51.0
472 13.0 77.0
473 13.0 86.0
474 7.0 24.0
475 16.0 91.0
476 28.0 65.0
477 7.0 42.0
478 29.0 39.0
479 19.0 16.0
480 17.0 83.0
481 28.0 83.0
482 40.0 57.0
483 25.0 23.0
484 10.0 34.0
485 10.0 43.0
486 37.0 24.0
487 22.0 35.0
488 13.0 72.0
489 1.0 79.0
490 13.0 90.0
491 1.0 88.0
492 28.0 51.0
493 18.0 28.0
494 28.0 60.0
495 19.0 11.0
496 28.0 87.0
497 9.0 83.0
498 10.0 20.0
499 25.0 27.0
500 10.0 38.0
501 34.0 14.0
502 25.0 54.0
503 3.0 17.0
504 43.0 62.0
505 13.0 58.0
506 4.0 89.0
507 43.0 71.0
508 16.0 63.0
509 43.0 89.0
510 13.0 85.0
511 36.0 50.0
512 16.0 81.0
513 7.0 23.0
514 40.0 20.0
515 40.0 29.0
516 28.0 82.0
517 21.0 61.0
518 10.0 24.0
519 19.0 91.0
520 25.0 22.0
521 10.0 33.0
522 25.0 31.0
523 34.0 9.0
524 34.0 18.0
525 43.0 48.0
526 31.0 92.0
527 4.0 75.0
528 43.0 57.0
529 13.0 53.0
530 16.0 67.0
531 7.0 9.0
532 13.0 89.0
533 16.0 85.0
534 28.0 50.0
535 28.0 59.0
536 19.0 77.0
537 25.0 8.0
538 19.0 86.0
539 10.0 28.0
540 10.0 37.0
541 25.0 35.0
542 31.0 87.0
543 43.0 52.0
544 12.0 83.0
545 4.0 79.0
546 1.0 55.0
547 1.0 64.0
548 28.0 36.0
549 28.0 45.0
550 40.0 10.0
551 6.0 17.0
552 28.0 63.0
553 40.0 28.0
554 40.0 37.0
555 30.0 72.0
556 8.0 72.0
557 19.0 72.0
558 39.0 50.0
559 19.0 81.0
560 25.0 12.0
561 10.0 23.0
562 10.0 32.0
563 31.0 64.0
564 13.0 25.0
565 43.0 38.0
566 4.0 65.0
567 43.0 56.0
568 13.0 61.0
569 28.0 40.0
570 40.0 32.0
571 21.0 28.0
572 19.0 67.0
573 10.0 9.0
574 11.0 72.0
575 10.0 18.0
576 19.0 85.0
577 25.0 16.0
578 20.0 50.0
579 43.0 15.0
580 31.0 59.0
581 39.0 72.0
582 31.0 68.0
583 13.0 29.0
584 4.0 60.0
585 43.0 42.0
586 16.0 25.0
587 4.0 69.0
588 43.0 51.0
589 1.0 45.0
590 13.0 47.0
591 34.0 79.0
592 37.0 84.0
593 28.0 26.0
594 40.0 18.0
595 7.0 70.0
596 7.0 88.0
597 19.0 71.0
598 43.0 10.0
599 43.0 28.0
600 4.0 46.0
601 1.0 22.0
602 1.0 31.0
603 16.0 29.0
604 1.0 40.0
605 1.0 49.0
606 22.0 81.0
607 34.0 83.0
608 1.0 58.0
609 34.0 92.0
610 7.0 74.0
611 19.0 48.0
612 19.0 57.0
613 31.0 31.0
614 4.0 23.0
615 41.0 72.0
616 31.0 58.0
617 43.0 23.0
618 4.0 41.0
619 13.0 19.0
620 43.0 32.0
621 16.0 15.0
622 24.0 28.0
623 13.0 28.0
624 4.0 59.0
625 34.0 60.0
626 34.0 69.0
627 16.0 33.0
628 37.0 65.0
629 34.0 78.0
630 37.0 83.0
631 37.0 92.0
632 7.0 60.0
633 7.0 69.0
634 19.0 52.0
635 20.0 17.0
636 31.0 17.0
637 30.0 61.0
638 31.0 35.0
639 33.0 72.0
640 25.0 68.0
641 13.0 14.0
642 1.0 21.0
643 13.0 23.0
644 16.0 19.0
645 34.0 55.0
646 25.0 86.0
647 34.0 73.0
648 22.0 71.0
649 37.0 69.0
650 34.0 82.0
651 28.0 11.0
652 37.0 87.0
653 26.0 50.0
654 19.0 20.0
655 7.0 64.0
656 19.0 29.0
657 19.0 38.0
658 7.0 82.0
659 31.0 21.0
660 12.0 17.0
661 31.0 39.0
662 34.0 32.0
663 25.0 63.0
664 4.0 40.0
665 34.0 41.0
666 1.0 16.0
667 34.0 50.0
668 1.0 25.0
669 34.0 59.0
670 37.0 55.0
671 27.0 28.0
672 19.0 24.0
673 7.0 68.0
674 40.0 74.0
675 40.0 83.0
676 31.0 25.0
677 4.0 17.0
678 25.0 49.0
679 4.0 26.0
680 25.0 58.0
681 22.0 34.0
682 37.0 32.0
683 25.0 76.0
684 14.0 39.0
685 22.0 52.0
686 25.0 85.0
687 37.0 50.0
688 22.0 70.0
689 7.0 54.0
690 19.0 19.0
691 31.0 11.0
692 40.0 78.0
693 4.0 12.0
694 34.0 13.0
695 4.0 21.0
696 34.0 22.0
697 10.0 64.0
698 34.0 31.0
699 37.0 27.0
700 34.0 49.0
701 26.0 17.0
702 22.0 65.0
703 7.0 31.0
704 28.0 72.0
705 17.0 72.0
706 7.0 49.0
707 40.0 46.0
708 28.0 90.0
709 40.0 64.0
710 11.0 28.0
711 25.0 30.0
712 10.0 41.0
713 25.0 48.0
714 37.0 13.0
715 33.0 61.0
716 10.0 68.0
717 34.0 35.0
718 37.0 31.0
719 10.0 77.0
720 13.0 79.0
START_DEPOT_SECTION
1
2
3
4
5
6
7
8
9
10
11
12
13
14
15
16
17
18
19
20
21
22
23
24
25
26
27
28
29
30
31
32
33
34
35
36
37
38
39
40
41
42
43
44
45
46
47
48
49
50
51
52
53
54
55
56
57
58
59
60
61
62
63
64
65
66
67
68
69
70
71
72
73
74
75
76
77
78
79
80
81
82
83
84
85
86
87
88
89
90
91
92
93
94
95
96
97
98
99
100
101
102
103
104
105
106
107
108
109
110
111
112
113
114
115
116
117
118
119
120
-1
END_DEPOT_SECTION
121
122
123
124
125
126
127
128
129
130
131
132
133
134
135
136
137
138
139
140
141
142
143
144
145
146
147
148
149
150
151
152
153
154
155
156
157
158
159
160
161
162
163
164
165
166
167
168
169
170
171
172
173
174
175
176
177
178
179
180
181
182
183
184
185
186
187
188
189
190
191
192
193
194
195
196
197
198
199
200
201
202
203
204
205
206
207
208
209
210
211
212
213
214
215
216
217
218
219
220
221
222
223
224
225
226
227
228
229
230
231
232
233
234
235
236
237
238
239
240
-1
EOF
